language Essence 1.3
$ generated by bacp-gen.pl with seed 823008011
$ edge probability 0.0373
$ course loads in range 2..8
letting n_courses be 172
letting n_periods be 26
letting load_per_period_lb be 5
letting load_per_period_ub be 49
letting courses_per_period_lb be 3
letting courses_per_period_ub be 10
letting course_load be function(
1 --> 6,
2 --> 2,
3 --> 8,
4 --> 7,
5 --> 5,
6 --> 3,
7 --> 6,
8 --> 3,
9 --> 2,
10 --> 5,
11 --> 7,
12 --> 2,
13 --> 2,
14 --> 6,
15 --> 4,
16 --> 6,
17 --> 4,
18 --> 3,
19 --> 3,
20 --> 3,
21 --> 2,
22 --> 4,
23 --> 5,
24 --> 5,
25 --> 4,
26 --> 7,
27 --> 2,
28 --> 3,
29 --> 8,
30 --> 8,
31 --> 6,
32 --> 8,
33 --> 8,
34 --> 5,
35 --> 4,
36 --> 6,
37 --> 5,
38 --> 5,
39 --> 4,
40 --> 5,
41 --> 2,
42 --> 3,
43 --> 6,
44 --> 6,
45 --> 6,
46 --> 2,
47 --> 3,
48 --> 2,
49 --> 2,
50 --> 8,
51 --> 2,
52 --> 2,
53 --> 3,
54 --> 8,
55 --> 2,
56 --> 6,
57 --> 4,
58 --> 6,
59 --> 8,
60 --> 7,
61 --> 6,
62 --> 3,
63 --> 4,
64 --> 7,
65 --> 4,
66 --> 6,
67 --> 2,
68 --> 8,
69 --> 7,
70 --> 7,
71 --> 5,
72 --> 6,
73 --> 3,
74 --> 6,
75 --> 7,
76 --> 5,
77 --> 5,
78 --> 5,
79 --> 3,
80 --> 2,
81 --> 2,
82 --> 7,
83 --> 5,
84 --> 4,
85 --> 5,
86 --> 5,
87 --> 8,
88 --> 2,
89 --> 2,
90 --> 6,
91 --> 5,
92 --> 6,
93 --> 2,
94 --> 8,
95 --> 3,
96 --> 6,
97 --> 7,
98 --> 7,
99 --> 5,
100 --> 5,
101 --> 8,
102 --> 7,
103 --> 6,
104 --> 6,
105 --> 3,
106 --> 4,
107 --> 8,
108 --> 3,
109 --> 5,
110 --> 5,
111 --> 5,
112 --> 4,
113 --> 7,
114 --> 6,
115 --> 2,
116 --> 4,
117 --> 8,
118 --> 5,
119 --> 4,
120 --> 3,
121 --> 5,
122 --> 4,
123 --> 2,
124 --> 4,
125 --> 3,
126 --> 2,
127 --> 4,
128 --> 2,
129 --> 3,
130 --> 7,
131 --> 5,
132 --> 4,
133 --> 5,
134 --> 3,
135 --> 3,
136 --> 3,
137 --> 2,
138 --> 5,
139 --> 3,
140 --> 6,
141 --> 6,
142 --> 8,
143 --> 2,
144 --> 4,
145 --> 7,
146 --> 6,
147 --> 4,
148 --> 6,
149 --> 6,
150 --> 2,
151 --> 5,
152 --> 5,
153 --> 3,
154 --> 2,
155 --> 4,
156 --> 7,
157 --> 2,
158 --> 3,
159 --> 7,
160 --> 7,
161 --> 2,
162 --> 6,
163 --> 6,
164 --> 7,
165 --> 5,
166 --> 4,
167 --> 5,
168 --> 4,
169 --> 5,
170 --> 6,
171 --> 3,
172 --> 7
)
$ layers: 30 108 34
$ max edges per layer: 3240 3672
$ generating 257 edges
letting prerequisite be relation (
(30,31),
(20,32),
(1,33),
(8,34),
(18,35),
(6,36),
(1,37),
(16,38),
(20,39),
(5,40),
(25,41),
(24,42),
(27,43),
(1,44),
(21,45),
(24,46),
(2,47),
(2,48),
(27,49),
(2,50),
(28,51),
(22,52),
(13,53),
(25,54),
(11,55),
(26,56),
(12,57),
(6,58),
(24,59),
(4,60),
(20,61),
(7,62),
(30,63),
(20,64),
(14,65),
(28,66),
(17,67),
(12,68),
(17,69),
(22,70),
(3,71),
(22,72),
(24,73),
(25,74),
(5,75),
(24,76),
(3,77),
(27,78),
(14,79),
(17,80),
(30,81),
(28,82),
(22,83),
(22,84),
(25,85),
(14,86),
(17,87),
(13,88),
(13,89),
(3,90),
(17,91),
(13,92),
(19,93),
(16,94),
(1,95),
(12,96),
(1,97),
(6,98),
(3,99),
(30,100),
(16,101),
(30,102),
(28,103),
(20,104),
(16,105),
(5,106),
(24,107),
(9,108),
(4,109),
(24,110),
(19,111),
(29,112),
(22,113),
(30,114),
(1,115),
(1,116),
(15,117),
(29,118),
(9,119),
(6,120),
(15,121),
(22,122),
(11,123),
(3,124),
(9,125),
(25,126),
(3,127),
(10,128),
(10,129),
(11,130),
(26,131),
(16,132),
(1,133),
(15,134),
(4,135),
(21,136),
(18,137),
(10,138),
(40,139),
(55,140),
(119,141),
(105,142),
(115,143),
(90,144),
(113,145),
(38,146),
(109,147),
(72,148),
(134,149),
(82,150),
(82,151),
(36,152),
(98,153),
(40,154),
(68,155),
(45,156),
(79,157),
(102,158),
(59,159),
(63,160),
(71,161),
(35,162),
(120,163),
(68,164),
(80,165),
(112,166),
(102,167),
(129,168),
(89,169),
(125,170),
(43,171),
(44,172),
(30,103),
(88,160),
(75,147),
(12,105),
(122,170),
(113,142),
(29,53),
(1,117),
(30,84),
(7,126),
(102,154),
(24,58),
(23,36),
(134,151),
(26,86),
(19,109),
(1,53),
(87,170),
(103,150),
(43,165),
(26,101),
(7,48),
(124,140),
(10,44),
(34,159),
(76,166),
(56,169),
(6,90),
(25,77),
(18,105),
(29,31),
(127,168),
(116,149),
(10,74),
(66,168),
(134,172),
(35,149),
(10,66),
(18,132),
(71,166),
(30,120),
(26,84),
(10,68),
(93,148),
(6,49),
(27,61),
(67,154),
(73,141),
(11,57),
(22,34),
(18,41),
(46,157),
(113,162),
(67,166),
(124,144),
(68,146),
(104,163),
(11,43),
(112,145),
(25,33),
(32,150),
(24,105),
(134,156),
(32,143),
(51,159),
(99,154),
(35,165),
(10,50),
(90,163),
(6,109),
(17,41),
(17,98),
(79,140),
(17,109),
(100,150),
(30,134),
(29,75),
(30,47),
(24,77),
(2,131),
(23,59),
(99,167),
(62,165),
(26,135),
(24,133),
(62,164),
(134,152),
(37,149),
(19,135),
(118,168),
(61,161),
(72,144),
(135,170),
(112,152),
(7,107),
(86,165),
(108,153),
(104,169),
(121,142),
(126,166),
(6,48),
(26,37),
(26,117),
(3,112),
(29,61),
(102,165),
(95,158),
(61,165),
(113,159),
(5,133),
(46,151),
(47,162),
(100,149),
(12,126),
(13,94)
)
